(set-info :smt-lib-version 2.6)
(set-logic QF_UFLRA)
(set-info :source |
MathSat group

|)
(set-info :category "random")
(set-info :status sat)
(declare-fun x0 () Real)
(declare-fun x1 () Real)
(declare-fun x2 () Real)
(declare-fun x3 () Real)
(declare-fun x4 () Real)
(declare-fun x5 () Real)
(declare-fun x6 () Real)
(declare-fun x7 () Real)
(declare-fun x8 () Real)
(declare-fun x9 () Real)
(declare-fun x10 () Real)
(declare-fun x11 () Real)
(declare-fun x12 () Real)
(declare-fun x13 () Real)
(declare-fun x14 () Real)
(declare-fun x15 () Real)
(declare-fun x16 () Real)
(declare-fun x17 () Real)
(declare-fun x18 () Real)
(declare-fun x19 () Real)
(declare-fun x20 () Real)
(declare-fun x21 () Real)
(declare-fun x22 () Real)
(declare-fun x23 () Real)
(declare-fun x24 () Real)
(declare-fun x25 () Real)
(declare-fun x26 () Real)
(declare-fun x27 () Real)
(declare-fun x28 () Real)
(declare-fun x29 () Real)
(declare-fun x30 () Real)
(declare-fun x31 () Real)
(declare-fun x32 () Real)
(declare-fun x33 () Real)
(declare-fun x34 () Real)
(declare-fun x35 () Real)
(declare-fun x36 () Real)
(declare-fun x37 () Real)
(declare-fun x38 () Real)
(declare-fun x39 () Real)
(declare-fun f0_1 (Real) Real)
(declare-fun f0_2 (Real Real) Real)
(declare-fun f0_3 (Real Real Real) Real)
(declare-fun f0_4 (Real Real Real Real) Real)
(declare-fun P0 () Bool)
(declare-fun P1 () Bool)
(declare-fun P2 () Bool)
(declare-fun P3 () Bool)
(declare-fun P4 () Bool)
(declare-fun P5 () Bool)
(declare-fun P6 () Bool)
(declare-fun P7 () Bool)
(declare-fun P8 () Bool)
(declare-fun P9 () Bool)
(declare-fun P10 () Bool)
(declare-fun P11 () Bool)
(declare-fun P12 () Bool)
(declare-fun P13 () Bool)
(declare-fun P14 () Bool)
(declare-fun P15 () Bool)
(declare-fun P16 () Bool)
(declare-fun P17 () Bool)
(declare-fun P18 () Bool)
(declare-fun P19 () Bool)
(declare-fun P20 () Bool)
(declare-fun P21 () Bool)
(declare-fun P22 () Bool)
(declare-fun P23 () Bool)
(declare-fun P24 () Bool)
(declare-fun P25 () Bool)
(declare-fun P26 () Bool)
(declare-fun P27 () Bool)
(declare-fun P28 () Bool)
(declare-fun P29 () Bool)
(declare-fun P30 () Bool)
(declare-fun P31 () Bool)
(declare-fun P32 () Bool)
(declare-fun P33 () Bool)
(declare-fun P34 () Bool)
(declare-fun P35 () Bool)
(declare-fun P36 () Bool)
(declare-fun P37 () Bool)
(declare-fun P38 () Bool)
(declare-fun P39 () Bool)
(assert (let ((?v_5 (* 3 x22)) (?v_91 (<= (- (+ (* 3 x27) (* 31 x25)) (* 28 x10)) 0)) (?v_87 (< (- (- (* 23 x21) (* 20 x26)) (* 48 x36)) 31)) (?v_50 (< (- (+ (* 33 x14) (* 40 x20)) (* 30 x1)) 14)) (?v_56 (< (- (- (* 22 x38) (* 48 x6)) (* 32 x1)) 48)) (?v_102 (< (+ (- (* 5 x13) (* 17 x27)) (* 30 x15)) 44)) (?v_43 (<= (- (- (* 43 x23) (* 24 x10)) (* 16 x35)) 28)) (?v_4 (< (- (- (* 13 x27) (* 12 x34)) (* 28 x20)) 44)) (?v_70 (distinct (f0_2 x36 x25) (f0_1 x26))) (?v_51 (distinct (f0_2 x21 x27) (f0_1 x30))) (?v_2 (f0_1 x27))) (let ((?v_11 (distinct x2 ?v_2)) (?v_116 (distinct (f0_2 x13 x5) (f0_2 x6 x6))) (?v_8 (f0_1 x1))) (let ((?v_118 (distinct ?v_8 (f0_1 x12))) (?v_154 (distinct x17 x36)) (?v_135 (= x10 x23)) (?v_36 (f0_1 x0))) (let ((?v_77 (= (f0_2 x20 x21) ?v_36)) (?v_19 (= x5 ?v_36)) (?v_157 (= (f0_2 x5 x16) (f0_2 x32 x14))) (?v_89 (f0_1 x18))) (let ((?v_101 (= (f0_1 x8) ?v_89)) (?v_79 (= (f0_2 x10 x23) ?v_8)) (?v_170 (distinct (f0_2 x5 x0) (f0_2 x34 x13))) (?v_18 (distinct (f0_2 x14 x29) (f0_1 x20))) (?v_190 (= x16 x29)) (?v_110 (= (f0_2 x15 x10) x4)) (?v_21 (= x23 (f0_1 x4))) (?v_185 (distinct ?v_36 x36)) (?v_81 (= (f0_2 x14 x27) (f0_1 x11))) (?v_144 (= (f0_2 x28 x4) (f0_2 x39 x37))) (?v_1 (= x12 x30)) (?v_23 (distinct x4 ?v_89)) (?v_30 (distinct ?v_2 x26)) (?v_3 (f0_1 x17))) (let ((?v_0 (distinct ?v_3 (f0_2 x29 x6))) (?v_95 (distinct x5 (f0_2 x12 x6))) (?v_41 (distinct (f0_2 x19 x9) (f0_2 x13 x2))) (?v_12 (= (f0_2 x4 x6) (f0_2 x29 x27))) (?v_69 (distinct (f0_2 x12 x39) x34)) (?v_120 (= (f0_1 x13) x4)) (?v_32 (= (f0_1 x2) (f0_1 x39))) (?v_68 (distinct x25 (f0_2 x22 x13))) (?v_15 (distinct (f0_1 x9) (f0_1 x10))) (?v_60 (distinct ?v_8 (f0_1 x28))) (?v_49 (= (f0_2 x22 x27) x5)) (?v_45 (distinct x5 (f0_1 x15))) (?v_17 (= x32 x19)) (?v_46 (= (f0_1 x33) x18)) (?v_28 (= ?v_3 (f0_2 x16 x33))) (?v_94 (distinct (f0_2 x36 x3) x17)) (?v_82 (distinct (f0_2 x12 x2) (f0_2 x20 x30))) (?v_168 (not P12)) (?v_67 (not ?v_1)) (?v_74 (not P31)) (?v_38 (not P29)) (?v_24 (not P7)) (?v_172 (not ?v_50)) (?v_57 (not P22)) (?v_14 (not ?v_87)) (?v_158 (not ?v_4)) (?v_134 (not P27)) (?v_37 (not ?v_118)) (?v_27 (not P28))) (let ((?v_153 (not ?v_94)) (?v_16 (not ?v_11)) (?v_104 (not ?v_19)) (?v_141 (not P14)) (?v_31 (not P23)) (?v_25 (not ?v_17)) (?v_86 (not ?v_18)) (?v_61 (not ?v_56)) (?v_42 (not ?v_46)) (?v_145 (not ?v_154)) (?v_150 (not ?v_12)) (?v_26 (not P35)) (?v_47 (not ?v_185)) (?v_122 (not P20)) (?v_76 (not P13)) (?v_159 (not P5)) (?v_119 (not P16)) (?v_73 (not P18)) (?v_167 (not ?v_68)) (?v_162 (not ?v_110)) (?v_179 (not P0)) (?v_128 (not P15)) (?v_53 (not ?v_41)) (?v_64 (not ?v_0)) (?v_164 (not ?v_43)) (?v_84 (not ?v_30)) (?v_75 (not ?v_21)) (?v_173 (not P3)) (?v_130 (not ?v_70)) (?v_127 (not P10)) (?v_139 (not ?v_116)) (?v_100 (not ?v_77)) (?v_107 (not ?v_49)) (?v_184 (not ?v_79)) (?v_111 (not P24)) (?v_106 (not ?v_82)) (?v_121 (not P6)) (?v_142 (not P19)) (?v_132 (not P34)) (?v_115 (not P2)) (?v_136 (not ?v_23)) (?v_152 (not ?v_101)) (?v_113 (not P9)) (?v_124 (not P37)) (?v_169 (not P17)) (?v_163 (not ?v_28)) (?v_175 (not ?v_170)) (?v_181 (not ?v_60)) (?v_129 (not P11)) (?v_133 (not ?v_91)) (?v_138 (not ?v_32)) (?v_204 (not ?v_81)) (?v_155 (not P30)) (?v_147 (not ?v_95)) (?v_195 (not P33)) (?v_156 (not ?v_190)) (?v_194 (not P1)) (?v_146 (not P26)) (?v_200 (or P24 ?v_134)) (?v_177 (not ?v_157)) (?v_196 (not ?v_102)) (?v_199 (not ?v_144)) (?v_151 (not ?v_135)) (?v_187 (not P32)) (?v_197 (not ?v_15)) (?v_165 (not P4)) (?v_176 (not P8)) (?v_188 (not ?v_51)) (?v_198 (not P38)) (?v_178 (not P25)) (?v_192 (not ?v_69)) (?v_203 (not ?v_120)) (?v_191 (not ?v_45)) (?v_34 (distinct (+ (* 8 x33) (* 21 x11) (* 35 x33)) 50))) (let ((?v_148 (not ?v_34)) (?v_9 (<= (- x28 (* 50 x35)) 11)) (?v_10 (< (- (- (* 18 x12) (* 40 x16)) 0) 59))) (let ((?v_182 (not ?v_10)) (?v_71 (distinct (- (- (* 3 x37) 0) ?v_5) 1))) (let ((?v_92 (not ?v_71)) (?v_112 (not ?v_9)) (?v_13 (< (- (+ (* 2 x30) (* 8 x30)) (* 7 x14)) (- 48)))) (let ((?v_123 (not ?v_13)) (?v_186 (<= (- (+ (* (- 16) x10) (* 13 x22)) (* 6 x27)) (- 50)))) (let ((?v_103 (not ?v_186)) (?v_33 (= (- (- (* (- 38) x15) (* 49 x37)) (* 43 x16)) 27)) (?v_7 (<= (+ (- (* 8 x5) ?v_5) (* 33 x3)) (- 32)))) (let ((?v_63 (not ?v_7)) (?v_55 (distinct (+ (- (* (- 55) x28) (* 19 x25)) (* 54 x21)) 50))) (let ((?v_22 (not ?v_55)) (?v_20 (< (+ (- (* 15 x0) (* 9 x23)) (* 19 x10)) (- 24))) (?v_62 (< (- (+ (* (- 1) x16) (* 20 x31)) (* 35 x36)) (- 42)))) (let ((?v_65 (not ?v_62)) (?v_40 (< (+ (- (* (- 1) x18) (* 38 x9)) (* 28 x7)) 15)) (?v_161 (< (- (- (* (- 7) x1) (* 45 x11)) (* 36 x3)) (- 2)))) (let ((?v_109 (not ?v_161)) (?v_6 (< (+ (* (- 54) x11) (* 2 x29) (* 44 x14)) 25))) (let ((?v_160 (not ?v_6)) (?v_48 (distinct (- (+ (* (- 50) x1) (* 18 x14)) x38) (- 49))) (?v_140 (< (+ (- (* (- 36) x11) (* 12 x8)) (* 25 x35)) (- 54)))) (let ((?v_93 (not ?v_140)) (?v_52 (= (+ (* 41 x35) (* 22 x26) (* 38 x24)) (- 10))) (?v_59 (< (+ (- (* (- 40) x24) (* 29 x30)) x16) (- 53))) (?v_29 (<= (+ (- (* (- 3) x32) (* 14 x38)) (* 30 x22)) (- 58))) (?v_166 (< (- (- (* 26 x1) (* 24 x20)) (* 35 x5)) (- 48))) (?v_35 (not ?v_20))) (let ((?v_88 (not ?v_29)) (?v_105 (<= (- (- (* (- 41) x4) (* 17 x38)) (* 50 x36)) 1))) (let ((?v_131 (not ?v_105)) (?v_39 (not ?v_33)) (?v_137 (<= (- (+ (* (- 55) x7) (* 54 x27)) (* 54 x37)) 32)) (?v_90 (= (- (* 5 x4) (* 43 x26)) (- 48)))) (let ((?v_54 (not ?v_90)) (?v_99 (< (- (* (- 4) x0) (* 53 x39)) (- 35)))) (let ((?v_174 (not ?v_99)) (?v_44 (<= (- (- (* (- 9) x11) (* 37 x32)) (* 39 x7)) (- 52))) (?v_78 (not ?v_48)) (?v_96 (not ?v_52)) (?v_108 (<= (+ (- (* 28 x34) (* 11 x10)) (* 57 x31)) (- 7)))) (let ((?v_58 (not ?v_108)) (?v_85 (not ?v_44)) (?v_66 (not ?v_59)) (?v_80 (< (+ (* (- 24) x31) (* 40 x23) (* 36 x11)) (- 53)))) (let ((?v_114 (not ?v_80)) (?v_72 (< (- (+ (* 43 x6) (* 26 x2)) (* 36 x14)) (- 23)))) (let ((?v_98 (not ?v_72)) (?v_97 (= (+ (- (* 7 x12) (* 26 x10)) (* 16 x18)) (- 19))) (?v_126 (<= (- (+ (* (- 19) x12) (* 31 x7)) (* 32 x27)) (- 55)))) (let ((?v_83 (not ?v_126)) (?v_193 (or ?v_34 ?v_85)) (?v_183 (not ?v_97)) (?v_143 (not ?v_40)) (?v_117 (<= (+ (- (* (- 7) x29) (* 4 x32)) (* 28 x22)) (- 51)))) (let ((?v_125 (not ?v_117)) (?v_149 (< (+ (- (* (- 53) x26) (* 18 x22)) (* 55 x8)) (- 45))) (?v_171 (not ?v_137))) (let ((?v_201 (not ?v_149)) (?v_189 (<= (- (+ (* (- 25) x13) (* 15 x25)) (* 24 x19)) (- 57)))) (let ((?v_180 (not ?v_189)) (?v_202 (not ?v_166))) (and (and (and (and (and (and (and (and (and (and (and (and (and (and (and (and (and (and (and (and (and (and (and (and (and (and (and (and (and (and (and (and (and (and (and (and (and (and (and (and (and (and (and (and (and (and (and (and (and (and (and (and (and (and (and (and (and (and (and (and (and (and (and (and (and (and (and (and (and (and (and (and (and (and (and (and (and (and (and (and (and (and (and (and (and (and (and (and (and (and (and (and (and (and (and (and (and (and (and (and (and (and (and (and (and (and (and (and (and (and (and (and (and (and (and (and (and (and (and (and (and (and (and (and (and (and (and (and (and (and (and (and (and (and (and (and (and (and (and (and (and (and (and (and (and (and (and (and (and (and (and (and (and (and (and (and (and (and (and (and (and (and (and (and (and (and (and (and (and (and (and (and (and (and (and (and (and (and (and (and (and (and (and (and (and (and (and (and (and (and (and (and (and (and (and (and (and (and (and (and (and (and (and (and (and (and (and (and (and (and (and (and (and (and (and (and (and (and (and (and (and (and (and (and (and (and (and (and (and (and (and (and (and (and (and (and (and (and (and (and (and (and (and (and (and (and (and (and (and (and (and (and (and (and (and (and (and (and (and (and (and (and (and (and (and (and (and (and (and (and (and (and (and (and (and (and (and (and (and (and (and (and (and (and (and (and (and (and (and (and (and (and (and (and (and (and (and (and (and (and (and (and (and (and (and (and (and (and (and (and (and (and (and (and (and (and (and (and (and (and (and (and (and (and (and (and (and (and (and (and (and (and (and (and (and (and (and (and (and (and (and (and (and (and (and (and (and (and (and (and (and (and (and (and (and (and (and (and (and (and (and (and (and (and (and (and (and (and (and (and (and (and (and (and (and (and (and (and (and (and (and (and (and (and (and (and (and (and (and (and (and (and (and (and (and (and (and (and (and (and (and (and (and (and (and (and (and (and (and (and (and (and (and (and (and (and (and (and (and (and (and (and (and (and (and (and (and (and (and (and (and (and (and (and (and (and (and (and (and (and (and (and (and (and (and (and (and (and (and (and (and (and (and (and (and (and (and (and (and (and (and (and (and (and (and (and (and (and (and (and (and (and (and (and (and (and (and (and (and (or (or ?v_148 ?v_0) ?v_43) (or (or ?v_123 ?v_168) P1)) (or (or P27 P27) ?v_69)) (or (or ?v_18 ?v_0) ?v_103)) (or (or P12 P7) ?v_33)) (or (or P7 P26) ?v_63)) (or (or ?v_22 ?v_11) P11)) (or (or ?v_20 P7) ?v_67)) (or (or ?v_65 ?v_74) ?v_38)) (or (or ?v_1 ?v_9) ?v_40)) (or (or ?v_30 ?v_41) ?v_24)) (or (or ?v_182 ?v_172) ?v_57)) (or (or P10 ?v_32) ?v_28)) (or (or ?v_109 P5) ?v_15)) (or (or ?v_4 ?v_14) ?v_60)) (or (or ?v_1 ?v_12) ?v_6)) (or (or ?v_158 ?v_102) ?v_92)) (or (or ?v_134 ?v_160) P32)) (or (or ?v_7 P31) P7)) (or (or ?v_21 ?v_17) ?v_95)) (or (or ?v_23 ?v_48) P10)) (or (or ?v_37 ?v_9) ?v_27)) (or (or ?v_153 P2) P37)) (or (or ?v_51 P4) ?v_10)) (or (or ?v_16 P3) ?v_12)) (or (or P2 P25) ?v_93)) (or (or ?v_13 ?v_14) ?v_104)) (or (or P11 P39) ?v_52)) (or (or ?v_141 ?v_31) P30)) (or (or ?v_135 ?v_12) ?v_15)) (or (or P5 ?v_16) ?v_25)) (or (or ?v_86 ?v_19) ?v_20)) (or (or ?v_61 ?v_21) ?v_42)) (or (or ?v_22 ?v_59) ?v_29)) (or (or ?v_145 ?v_150) ?v_26)) (or (or ?v_166 P35) ?v_23)) (or (or ?v_112 ?v_35) ?v_24)) (or (or ?v_25 ?v_26) ?v_79)) (or (or ?v_27 ?v_28) ?v_88)) (or (or ?v_0 P29) ?v_49)) (or (or ?v_131 ?v_30) P25)) (or (or ?v_70 P36) ?v_31)) (or (or P30 ?v_32) ?v_39)) (or (or P16 ?v_28) ?v_34)) (or (or ?v_35 ?v_47) ?v_122)) (or (or ?v_37 ?v_76) ?v_159)) (or (or P5 ?v_38) P10)) (or (or ?v_119 P38) ?v_73)) (or (or ?v_167 P15) ?v_162)) (or (or P39 ?v_23) ?v_6)) (or (or P10 ?v_39) ?v_40)) (or (or ?v_91 ?v_137) P8)) (or (or ?v_179 ?v_54) ?v_128)) (or (or P19 ?v_14) ?v_53)) (or (or ?v_174 ?v_44) ?v_64)) (or (or P11 ?v_42) ?v_164)) (or (or ?v_44 ?v_12) ?v_45)) (or (or ?v_45 ?v_23) ?v_46)) (or (or ?v_47 ?v_84) ?v_78)) (or (or P1 ?v_49) ?v_50)) (or (or ?v_51 (not P21)) ?v_96)) (or (or ?v_53 ?v_77) ?v_75)) (or (or P24 ?v_12) ?v_54)) (or (or ?v_58 ?v_55) P8)) (or (or ?v_173 ?v_85) ?v_56)) (or (or ?v_57 ?v_38) ?v_52)) (or (or ?v_58 ?v_66) P13)) (or (or ?v_60 P36) ?v_61)) (or (or ?v_62 ?v_63) ?v_114)) (or (or P26 ?v_42) ?v_72)) (or (or ?v_82 ?v_64) P5)) (or (or ?v_65 ?v_50) ?v_66)) (or (or ?v_67 ?v_59) ?v_68)) (or (or ?v_69 ?v_130) ?v_71)) (or (or ?v_81 ?v_98) ?v_73)) (or (or P12 ?v_127) ?v_74)) (or (or ?v_48 ?v_56) ?v_75)) (or (or ?v_97 ?v_76) ?v_66)) (or (or ?v_139 ?v_100) ?v_83)) (or (or ?v_41 ?v_4) ?v_78)) (or (or ?v_107 ?v_184) ?v_50)) (or (or ?v_43 ?v_9) ?v_111)) (or (or ?v_62 ?v_71) ?v_38)) (or (or P5 ?v_80) P8)) (or (or ?v_63 ?v_81) ?v_106)) (or (or ?v_83 ?v_70) ?v_84)) (or ?v_193 ?v_35)) (or (or ?v_45 P8) ?v_120)) (or (or P4 ?v_121) P23)) (or (or ?v_48 ?v_142) ?v_86)) (or (or ?v_132 ?v_115) ?v_87)) (or (or ?v_74 ?v_88) ?v_43)) (or (or ?v_136 ?v_152) P6)) (or (or P21 ?v_25) ?v_23)) (or (or ?v_56 ?v_90) ?v_32)) (or (or ?v_91 ?v_49) ?v_24)) (or (or ?v_92 ?v_93) ?v_94)) (or (or ?v_55 ?v_95) P18)) (or (or ?v_26 ?v_113) ?v_96)) (or (or ?v_183 ?v_98) ?v_29)) (or (or ?v_99 ?v_100) ?v_101)) (or (or ?v_14 ?v_124) ?v_143)) (or (or ?v_41 ?v_56) ?v_80)) (or (or ?v_28 ?v_102) ?v_103)) (or (or ?v_169 P10) ?v_85)) (or (or ?v_6 ?v_104) ?v_144)) (or (or ?v_10 ?v_61) ?v_105)) (or (or ?v_163 P28) P20)) (or (or ?v_83 ?v_175) ?v_106)) (or (or ?v_75 ?v_107) ?v_108)) (or (or ?v_66 ?v_21) ?v_109)) (or (or ?v_15 ?v_110) ?v_181)) (or (or P37 ?v_83) ?v_129)) (or (or ?v_93 P25) ?v_32)) (or (or ?v_111 ?v_56) P5)) (or (or ?v_106 ?v_14) ?v_103)) (or (or ?v_112 ?v_14) ?v_113)) (or (or ?v_32 ?v_43) ?v_133)) (or (or ?v_125 ?v_114) ?v_50)) (or (or ?v_79 ?v_100) ?v_73)) (or (or ?v_9 ?v_115) ?v_94)) (or (or ?v_29 ?v_116) P29)) (or (or ?v_138 P33) ?v_117)) (or (or ?v_149 ?v_118) ?v_94)) (or (or ?v_64 ?v_91) ?v_119)) (or (or ?v_120 ?v_204) ?v_109)) (or (or ?v_121 ?v_122) ?v_46)) (or (or ?v_123 ?v_16) ?v_115)) (or (or P15 P7) ?v_124)) (or (or P33 ?v_34) ?v_125)) (or (or ?v_126 ?v_87) ?v_155)) (or (or ?v_127 ?v_128) P4)) (or (or P20 ?v_129) ?v_130)) (or (or ?v_49 ?v_124) ?v_147)) (or (or ?v_125 ?v_107) ?v_39)) (or (or ?v_125 ?v_58) ?v_75)) (or (or ?v_28 ?v_111) ?v_131)) (or (or ?v_13 P5) ?v_132)) (or (or ?v_195 ?v_133) ?v_106)) (or (or ?v_6 ?v_134) ?v_156)) (or (or ?v_111 ?v_22) ?v_135)) (or (or P24 ?v_120) ?v_128)) (or (or ?v_136 ?v_71) ?v_123)) (or (or ?v_194 ?v_57) ?v_146)) (or (or P9 ?v_106) ?v_39)) (or (or P32 ?v_171) P21)) (or (or ?v_82 P8) P0)) (or (or ?v_61 ?v_57) ?v_13)) (or (or ?v_49 ?v_138) ?v_27)) (or (or ?v_139 ?v_107) P21)) (or (or ?v_12 P17) ?v_140)) (or (or ?v_57 ?v_12) ?v_18)) (or (or ?v_68 ?v_107) ?v_114)) (or ?v_200 ?v_136)) (or (or P22 P3) ?v_132)) (or (or P18 ?v_56) ?v_24)) (or (or ?v_85 ?v_141) ?v_142)) (or (or P4 P4) ?v_143)) (or (or ?v_106 ?v_177) ?v_144)) (or (or ?v_42 ?v_112) ?v_145)) (or (or ?v_141 ?v_121) ?v_146)) (or (or ?v_32 ?v_81) P7)) (or (or ?v_147 ?v_148) ?v_84)) (or (or ?v_12 ?v_43) ?v_93)) (or (or ?v_48 P20) ?v_40)) (or (or ?v_90 ?v_141) ?v_196)) (or (or ?v_108 ?v_23) ?v_145)) (or (or P37 P36) ?v_114)) (or (or P31 P32) ?v_75)) (or (or ?v_201 ?v_134) ?v_88)) (or (or P36 ?v_199) P10)) (or (or ?v_151 P32) ?v_131)) (or (or ?v_180 ?v_150) P12)) (or (or ?v_187 ?v_109) ?v_96)) (or (or ?v_86 ?v_23) ?v_67)) (or (or ?v_109 ?v_85) ?v_20)) (or (or P10 ?v_151) ?v_152)) (or (or ?v_25 ?v_125) ?v_82)) (or (or ?v_153 P19) ?v_154)) (or (or ?v_99 ?v_197) ?v_14)) (or (or ?v_135 ?v_42) P22)) (or (or P24 ?v_78) ?v_90)) (or (or ?v_134 ?v_48) ?v_155)) (or (or ?v_40 ?v_133) ?v_156)) (or (or ?v_144 ?v_56) ?v_37)) (or (or ?v_157 P25) P9)) (or (or ?v_158 ?v_25) ?v_86)) (or (or P20 ?v_149) ?v_150)) (or (or ?v_159 P26) ?v_1)) (or (or ?v_160 ?v_10) ?v_85)) (or (or ?v_161 ?v_27) ?v_45)) (or (or ?v_165 ?v_74) ?v_100)) (or (or ?v_10 ?v_162) ?v_25)) (or (or ?v_45 P27) P28)) (or (or ?v_126 ?v_114) ?v_34)) (or (or ?v_163 ?v_102) ?v_139)) (or (or ?v_79 ?v_137) ?v_164)) (or (or ?v_84 ?v_121) ?v_162)) (or (or ?v_176 ?v_26) ?v_188)) (or (or ?v_16 ?v_55) P3)) (or (or ?v_9 ?v_41) P39)) (or (or ?v_124 ?v_132) ?v_32)) (or (or ?v_165 ?v_91) P16)) (or (or ?v_121 P9) ?v_118)) (or (or ?v_26 ?v_34) ?v_50)) (or (or ?v_135 ?v_202) ?v_81)) (or (or ?v_61 ?v_75) ?v_66)) (or (or ?v_167 ?v_24) ?v_165)) (or (or ?v_136 P35) ?v_16)) (or (or ?v_168 ?v_143) ?v_123)) (or (or ?v_67 ?v_78) ?v_39)) (or (or ?v_76 ?v_169) ?v_109)) (or (or ?v_155 ?v_35) ?v_170)) (or (or ?v_60 ?v_126) ?v_1)) (or (or ?v_171 ?v_198) ?v_21)) (or (or ?v_69 ?v_117) P28)) (or (or P15 ?v_128) ?v_155)) (or (or ?v_27 ?v_6) P19)) (or (or ?v_12 ?v_122) ?v_11)) (or (or P11 ?v_7) ?v_172)) (or (or ?v_78 ?v_173) ?v_163)) (or (or ?v_172 ?v_136) ?v_133)) (or (or ?v_131 ?v_106) ?v_52)) (or (or ?v_60 ?v_178) ?v_104)) (or (or ?v_33 ?v_72) ?v_110)) (or (or ?v_90 ?v_51) ?v_160)) (or (or P25 ?v_27) ?v_62)) (or (or ?v_17 ?v_151) ?v_106)) (or (or ?v_136 ?v_43) ?v_46)) (or (or ?v_171 ?v_174) ?v_172)) (or (or ?v_115 P14) ?v_56)) (or (or ?v_119 ?v_87) ?v_107)) (or (or ?v_13 ?v_166) ?v_118)) (or (or ?v_140 ?v_1) ?v_55)) (or (or ?v_21 ?v_175) ?v_123)) (or (or ?v_17 ?v_117) ?v_16)) (or (or P22 ?v_61) ?v_159)) (or (or ?v_121 ?v_62) P37)) (or (or ?v_161 P13) ?v_13)) (or (or ?v_157 ?v_49) ?v_176)) (or (or ?v_167 ?v_118) ?v_63)) (or (or P22 P39) ?v_104)) (or (or ?v_46 ?v_127) ?v_137)) (or (or P35 ?v_113) ?v_138)) (or (or ?v_147 ?v_1) ?v_132)) (or (or ?v_88 ?v_153) ?v_4)) (or (or ?v_38 ?v_120) P3)) (or (or ?v_156 P38) ?v_167)) (or (or ?v_9 P23) P30)) (or (or P23 ?v_94) ?v_76)) (or (or ?v_158 ?v_106) ?v_129)) (or (or ?v_177 ?v_96) ?v_7)) (or (or ?v_92 ?v_124) ?v_76)) (or (or ?v_16 ?v_164) ?v_98)) (or (or ?v_133 ?v_29) ?v_141)) (or (or ?v_159 ?v_26) ?v_111)) (or (or ?v_178 P5) ?v_175)) (or (or ?v_128 ?v_114) ?v_179)) (or (or ?v_74 ?v_157) ?v_42)) (or (or ?v_34 ?v_14) ?v_192)) (or (or ?v_180 ?v_21) ?v_181)) (or (or ?v_13 ?v_167) P8)) (or (or ?v_169 P15) ?v_84)) (or (or ?v_103 P31) ?v_63)) (or (or ?v_39 ?v_149) ?v_101)) (or (or ?v_68 ?v_7) ?v_93)) (or (or ?v_74 P21) ?v_96)) (or (or P0 ?v_59) P26)) (or (or ?v_114 P32) ?v_35)) (or (or ?v_155 ?v_164) ?v_25)) (or (or ?v_172 ?v_168) ?v_97)) (or (or ?v_182 ?v_203) ?v_74)) (or (or ?v_183 ?v_32) ?v_30)) (or (or ?v_113 ?v_38) ?v_158)) (or (or ?v_12 ?v_112) ?v_27)) (or (or ?v_38 ?v_131) ?v_56)) (or (or ?v_124 ?v_96) ?v_98)) (or (or ?v_46 ?v_59) ?v_184)) (or (or ?v_58 ?v_80) ?v_106)) (or (or ?v_191 P10) ?v_185)) (or (or ?v_182 ?v_79) ?v_104)) (or (or ?v_93 ?v_148) ?v_104)) (or (or ?v_139 ?v_186) ?v_95)) (or (or ?v_154 ?v_133) ?v_34)) (or (or ?v_45 P36) ?v_132)) (or (or ?v_113 ?v_130) ?v_101)) (or (or ?v_101 ?v_187) ?v_28)) (or (or ?v_111 P33) ?v_72)) (or (or P20 ?v_77) ?v_44)) (or (or ?v_28 ?v_4) P38)) (or (or P2 (not P39)) P19)) (or (or P16 ?v_52) P19)) (or (or ?v_124 P38) P18)) (or (or ?v_23 ?v_188) ?v_137)) (or (or ?v_173 ?v_53) ?v_26)) (or (or ?v_139 ?v_31) ?v_25)) (or (or ?v_144 ?v_168) ?v_146)) (or (or ?v_140 ?v_159) ?v_105)) (or (or ?v_110 P10) ?v_189)) (or (or ?v_184 ?v_34) ?v_35)) (or (or ?v_23 ?v_129) P8)) (or (or ?v_95 ?v_141) ?v_129)) (or (or ?v_138 ?v_78) ?v_75)) (or (or ?v_50 ?v_147) ?v_0)) (or (or ?v_190 ?v_42) ?v_108)) (or (or ?v_161 ?v_84) ?v_113)) (or (or P12 ?v_49) ?v_162)) (or (or ?v_51 ?v_191) ?v_44)) (or (or ?v_144 ?v_52) ?v_168)) (or (or P4 ?v_22) ?v_65)) (or (or ?v_57 P11) ?v_192)) (or (or ?v_166 ?v_109) ?v_93)) (or (or ?v_33 ?v_161) ?v_131)) (or ?v_193 ?v_150)) (or (or P36 ?v_0) ?v_92)) (or (or ?v_19 ?v_51) ?v_99)) (or (or ?v_62 ?v_115) P27)) (or (or ?v_194 ?v_25) ?v_192)) (or (or ?v_87 ?v_112) ?v_131)) (or (or P7 ?v_129) ?v_79)) (or (or P17 ?v_19) ?v_98)) (or (or ?v_160 ?v_138) P39)) (or (or ?v_1 ?v_181) ?v_46)) (or (or ?v_11 P39) ?v_175)) (or (or ?v_151 P4) ?v_166)) (or (or ?v_65 P20) ?v_158)) (or (or ?v_37 ?v_59) ?v_195)) (or (or ?v_196 ?v_58) ?v_115)) (or (or ?v_125 ?v_152) P3)) (or (or ?v_138 ?v_6) P4)) (or (or ?v_197 ?v_92) ?v_128)) (or (or ?v_117 ?v_6) P19)) (or (or P2 ?v_46) ?v_39)) (or (or P36 ?v_132) ?v_14)) (or (or ?v_139 ?v_93) ?v_198)) (or (or P38 P35) ?v_97)) (or (or ?v_171 P14) ?v_60)) (or (or ?v_7 ?v_94) ?v_68)) (or (or ?v_19 ?v_198) ?v_82)) (or (or ?v_119 ?v_85) ?v_104)) (or (or ?v_27 ?v_73) P25)) (or (or ?v_165 P10) ?v_33)) (or (or ?v_73 ?v_168) ?v_15)) (or (or ?v_177 P39) P14)) (or (or P30 ?v_35) ?v_104)) (or (or ?v_44 ?v_28) ?v_154)) (or (or ?v_58 ?v_75) ?v_175)) (or (or ?v_155 ?v_168) ?v_0)) (or (or P9 P16) P17)) (or (or ?v_182 ?v_98) ?v_128)) (or (or ?v_78 ?v_14) ?v_121)) (or (or P37 ?v_197) ?v_7)) (or (or ?v_17 ?v_84) ?v_119)) (or (or ?v_199 ?v_81) P4)) (or ?v_200 ?v_105)) (or (or ?v_176 ?v_51) P9)) (or (or ?v_122 ?v_170) ?v_172)) (or (or ?v_115 ?v_76) ?v_104)) (or (or P17 ?v_44) ?v_106)) (or (or ?v_156 ?v_44) ?v_0)) (or (or ?v_14 ?v_153) ?v_185)) (or (or ?v_82 ?v_60) ?v_58)) (or (or ?v_43 P31) ?v_100)) (or (or P19 ?v_93) ?v_73)) (or (or ?v_136 ?v_86) ?v_53)) (or (or ?v_53 ?v_157) ?v_28)) (or (or ?v_168 ?v_63) ?v_173)) (or (or ?v_52 ?v_186) P34)) (or (or ?v_114 ?v_160) P36)) (or (or ?v_81 P22) ?v_19)) (or (or ?v_136 ?v_88) P39)) (or (or ?v_201 ?v_33) ?v_9)) (or (or ?v_32 ?v_29) ?v_129)) (or (or ?v_102 ?v_146) P8)) (or (or ?v_14 ?v_191) ?v_157)) (or (or ?v_99 ?v_178) ?v_57)) (or (or ?v_51 ?v_92) ?v_189)) (or (or ?v_40 ?v_68) ?v_199)) (or (or ?v_58 ?v_110) ?v_40)) (or (or ?v_128 ?v_75) P13)) (or (or P34 ?v_9) ?v_182)) (or (or ?v_113 ?v_87) ?v_73)) (or (or ?v_32 ?v_191) ?v_202)) (or (or P38 ?v_37) P26)) (or (or ?v_175 ?v_4) ?v_43)) (or (or ?v_6 ?v_1) ?v_7)) (or (or ?v_33 ?v_60) P6)) (or (or ?v_186 ?v_18) ?v_123)) (or (or ?v_115 P9) ?v_88)) (or (or P9 ?v_157) ?v_185)) (or (or ?v_109 ?v_28) ?v_27)) (or (or ?v_136 ?v_11) ?v_71)) (or (or ?v_165 ?v_199) P35)) (or (or ?v_158 ?v_159) ?v_80)) (or (or ?v_157 ?v_4) ?v_68)) (or (or ?v_53 ?v_162) ?v_181)) (or (or ?v_40 ?v_181) ?v_33)) (or (or ?v_15 ?v_104) ?v_198)) (or (or ?v_166 ?v_115) P30)) (or (or ?v_168 P26) ?v_63)) (or (or ?v_80 P30) ?v_152)) (or (or P28 ?v_64) ?v_59)) (or (or ?v_41 ?v_192) ?v_23)) (or (or ?v_189 P4) ?v_196)) (or (or ?v_149 ?v_15) ?v_33)) (or (or ?v_109 ?v_166) ?v_104)) (or (or ?v_141 P23) ?v_143)) (or (or P12 ?v_132) ?v_53)) (or (or ?v_150 ?v_6) ?v_79)) (or (or P23 ?v_103) ?v_37)) (or (or ?v_170 ?v_187) ?v_160)) (or (or ?v_128 ?v_184) P28)) (or (or ?v_55 ?v_28) P15)) (or (or P13 ?v_78) ?v_148)) (or (or ?v_52 ?v_150) ?v_121)) (or (or ?v_187 P25) P0)) (or (or ?v_78 ?v_72) P17)) (or (or ?v_75 ?v_157) ?v_148)) (or (or ?v_44 ?v_98) ?v_108)) (or (or ?v_91 ?v_99) P7)) (or (or ?v_44 ?v_50) ?v_40)) (or (or P29 ?v_52) ?v_6)) (or (or ?v_11 ?v_64) ?v_151)) (or (or ?v_120 ?v_150) ?v_20)) (or (or ?v_171 ?v_167) ?v_121)) (or (or ?v_88 ?v_87) ?v_145)) (or (or P14 ?v_192) ?v_109)) (or (or ?v_74 ?v_104) ?v_127)) (or (or P22 P34) ?v_123)) (or (or ?v_127 ?v_23) ?v_150)) (or (or ?v_42 ?v_43) P11)) (or (or ?v_129 ?v_69) ?v_115)) (or (or ?v_199 ?v_186) P37)) (or (or ?v_9 ?v_175) ?v_118)) (or (or P21 ?v_187) ?v_115)) (or (or ?v_12 ?v_203) ?v_60)) (or (or ?v_63 ?v_164) ?v_74)) (or (or ?v_84 ?v_130) ?v_150)) (or (or ?v_168 ?v_82) ?v_148)) (or (or ?v_91 ?v_160) ?v_118)) (or (or ?v_127 ?v_187) ?v_113)) (or (or P26 ?v_79) ?v_138)) (or (or ?v_53 ?v_37) ?v_195)) (or (or ?v_32 P11) ?v_176)) (or (or ?v_57 P38) ?v_1)) (or (or ?v_75 ?v_166) ?v_121)) (or (or ?v_203 ?v_196) ?v_93)) (or (or ?v_194 ?v_108) ?v_27)) (or (or ?v_163 P26) ?v_151)) (or (or ?v_82 ?v_103) ?v_99)) (or (or ?v_55 P16) ?v_66)) (or (or ?v_79 P10) ?v_71)) (or (or ?v_111 ?v_128) ?v_76)) (or (or ?v_170 ?v_172) P19)) (or (or ?v_4 ?v_31) ?v_17)) (or (or ?v_107 P36) ?v_203)) (or (or ?v_0 ?v_173) ?v_33)) (or (or ?v_98 ?v_166) ?v_49)) (or (or ?v_39 ?v_144) P17)) (or (or P18 P13) ?v_203)) (or (or P28 ?v_180) ?v_123)) (or (or ?v_77 P27) ?v_47)) (or (or ?v_6 ?v_17) ?v_169)) (or (or ?v_134 ?v_147) P13)) (or (or ?v_101 ?v_72) ?v_25)) (or (or ?v_166 ?v_204) P10)) (or (or ?v_128 ?v_10) ?v_52)) (or (or ?v_35 ?v_178) P17)) (or (or ?v_29 ?v_97) ?v_172)) (or (or ?v_148 ?v_45) ?v_102)) (or (or ?v_160 ?v_90) ?v_149)) (or (or ?v_124 ?v_30) ?v_19)) (or (or ?v_131 P29) ?v_196)) (or (or ?v_95 ?v_121) P5)) (or (or ?v_129 ?v_136) ?v_92)) (or (or ?v_117 (not P36)) ?v_33)) (or (or ?v_133 ?v_19) ?v_95)) (or (or ?v_171 P34) ?v_142)) (or (or P7 ?v_153) ?v_189)) (or (or ?v_11 ?v_77) ?v_94))))))))))))))))))))))))))))))))
(check-sat)
(exit)
